2 10
149 101 
0 3 57 88 75 3 16 1
1 92 49 100 92 37 5 1
2 73 75 82 46 55 31 1
3 33 92 10 39 70 88 1
4 99 89 67 40 99 4 1
5 42 79 51 25 7 73 1
6 43 58 91 85 50 73 2
7 53 85 85 23 99 47 2
8 56 86 8 61 92 83 2
9 48 75 16 22 25 58 1
